p cnf 858 2607
-90 91 0 
-90 24 0 
-91 92 0 
-91 22 0 
-92 93 0 
-92 20 0 
-93 58 0 
-93 66 0 
-94 95 101 0 
-95 96 0 
-95 28 0 
-96 97 0 
-96 26 0 
-97 98 0 
-97 24 0 
-98 99 0 
-98 22 0 
-99 100 0 
-99 12 0 
-5 -3 0 
-5 3 6 0 
-100 21 0 
-101 -102 107 0 
-101 102 111 0 
-102 103 0 
-102 28 0 
-103 104 0 
-103 26 0 
-104 105 0 
-104 24 0 
-105 106 0 
-105 22 0 
-106 100 0 
-106 36 0 
-107 -108 0 
-107 108 39 0 
-108 109 76 0 
-109 110 0 
-111 -112 117 0 
-111 112 310 0 
-112 113 0 
-112 28 0 
-113 114 0 
-113 26 0 
-114 115 0 
-114 24 0 
-115 116 0 
-115 11 0 
-116 23 0 
-117 -108 0 
-117 108 118 0 
-118 -119 0 
-118 119 39 0 
-119 120 0 
-119 215 0 
-120 121 0 
-120 213 0 
-121 122 0 
-121 211 0 
-122 123 0 
-122 209 0 
-123 124 0 
-123 207 0 
-124 125 0 
-124 205 0 
-125 126 0 
-125 203 0 
-126 127 0 
-126 201 0 
-127 128 0 
-127 199 0 
-128 129 0 
-128 197 0 
-129 130 0 
-129 195 0 
-6 -7 0 
-6 7 30 0 
-130 131 0 
-130 193 0 
-131 132 0 
-131 191 0 
-132 133 0 
-132 189 0 
-133 134 0 
-133 187 0 
-134 135 0 
-134 185 0 
-135 136 0 
-135 183 0 
-136 137 0 
-136 181 0 
-137 138 0 
-137 179 0 
-138 139 0 
-138 177 0 
-139 140 0 
-139 175 0 
-7 8 0 
-7 28 0 
-140 141 0 
-140 173 0 
-141 142 0 
-141 171 0 
-142 143 0 
-142 169 0 
-143 144 0 
-143 167 0 
-144 145 0 
-144 165 0 
-145 146 0 
-145 163 0 
-146 147 0 
-146 161 0 
-147 148 0 
-147 159 0 
-148 149 0 
-148 157 0 
-149 150 0 
-149 155 0 
-8 9 0 
-8 26 0 
-150 151 0 
-150 153 0 
-151 -152 0 
-153 -154 0 
-155 -156 0 
-157 -158 0 
-159 -160 0 
-9 10 0 
-9 24 0 
-161 -162 0 
-163 -164 0 
-165 -166 0 
-167 -168 0 
-169 -170 0 
-10 11 0 
-10 22 0 
-171 -172 0 
-173 -174 0 
-175 -176 0 
-177 -178 0 
-179 -180 0 
-11 12 0 
-11 20 0 
-181 -182 0 
-183 -184 0 
-185 -186 0 
-187 -188 0 
-189 -190 0 
-12 13 0 
-12 18 0 
-191 -192 0 
-193 -194 0 
-195 -196 0 
-197 -198 0 
-199 -200 0 
-13 14 0 
-13 16 0 
-201 -202 0 
-203 -204 0 
-205 -206 0 
-207 -208 0 
-209 -210 0 
-14 -15 0 
-211 -212 0 
-213 -214 0 
-215 216 0 
-215 308 0 
-216 217 0 
-216 306 0 
-217 218 0 
-217 304 0 
-218 219 0 
-218 302 0 
-219 220 0 
-219 300 0 
-220 221 0 
-220 298 0 
-221 222 0 
-221 296 0 
-222 223 0 
-222 294 0 
-223 224 0 
-223 292 0 
-224 225 0 
-224 290 0 
-225 226 0 
-225 288 0 
-226 227 0 
-226 286 0 
-227 228 0 
-227 284 0 
-228 229 0 
-228 282 0 
-229 230 0 
-229 280 0 
-16 -17 0 
-230 231 0 
-230 278 0 
-231 232 0 
-231 276 0 
-232 233 0 
-232 274 0 
-233 234 0 
-233 272 0 
-234 235 0 
-234 270 0 
-235 236 0 
-235 268 0 
-236 237 0 
-236 266 0 
-237 238 0 
-237 264 0 
-238 239 0 
-238 262 0 
-239 240 0 
-239 260 0 
-240 241 0 
-240 258 0 
-241 242 0 
-241 256 0 
-242 243 0 
-242 254 0 
-243 244 0 
-243 252 0 
-244 245 0 
-244 250 0 
-245 246 0 
-245 248 0 
-246 -247 0 
-248 -249 0 
-18 -19 0 
-250 -251 0 
-252 -253 0 
-254 -255 0 
-256 -257 0 
-258 -259 0 
-260 -261 0 
-262 -263 0 
-264 -265 0 
-266 -267 0 
-268 -269 0 
-20 -21 0 
-270 -271 0 
-272 -273 0 
-274 -275 0 
-276 -277 0 
-278 -279 0 
-280 -281 0 
-282 -283 0 
-284 -285 0 
-286 -287 0 
-288 -289 0 
-22 -23 0 
-290 -291 0 
-292 -293 0 
-294 -295 0 
-296 -297 0 
-298 -299 0 
-300 -301 0 
-302 -303 0 
-304 -305 0 
-306 -307 0 
-308 -309 0 
-24 -25 0 
-310 -311 315 0 
-310 311 349 0 
-311 312 0 
-311 28 0 
-312 313 0 
-312 26 0 
-313 24 0 
-313 314 0 
-314 116 0 
-314 35 0 
-315 -108 0 
-315 108 316 0 
-316 -317 0 
-316 317 39 0 
-317 213 0 
-317 318 0 
-318 211 0 
-318 319 0 
-319 209 0 
-319 320 0 
-320 207 0 
-320 321 0 
-321 205 0 
-321 322 0 
-322 203 0 
-322 323 0 
-323 201 0 
-323 324 0 
-324 199 0 
-324 325 0 
-325 197 0 
-325 326 0 
-326 195 0 
-326 327 0 
-327 193 0 
-327 328 0 
-328 191 0 
-328 329 0 
-329 189 0 
-329 330 0 
-26 -27 0 
-330 187 0 
-330 331 0 
-331 185 0 
-331 332 0 
-332 183 0 
-332 333 0 
-333 181 0 
-333 334 0 
-334 179 0 
-334 335 0 
-335 177 0 
-335 336 0 
-336 175 0 
-336 337 0 
-337 173 0 
-337 338 0 
-338 171 0 
-338 339 0 
-339 169 0 
-339 340 0 
-340 167 0 
-340 341 0 
-341 165 0 
-341 342 0 
-342 163 0 
-342 343 0 
-343 161 0 
-343 344 0 
-344 159 0 
-344 345 0 
-345 157 0 
-345 346 0 
-346 155 0 
-346 347 0 
-347 153 0 
-347 348 0 
-348 152 0 
-349 -350 354 0 
-349 350 421 0 
-28 -29 0 
-350 28 0 
-350 351 0 
-351 26 0 
-351 352 0 
-352 24 0 
-352 353 0 
-353 116 0 
-353 47 0 
-354 -108 0 
-354 108 355 0 
-355 -356 0 
-355 356 39 0 
-356 357 0 
-356 389 0 
-357 213 0 
-357 358 0 
-358 211 0 
-358 359 0 
-359 209 0 
-359 360 0 
-360 207 0 
-360 361 0 
-361 205 0 
-361 362 0 
-362 203 0 
-362 363 0 
-363 201 0 
-363 364 0 
-364 199 0 
-364 365 0 
-365 197 0 
-365 366 0 
-366 195 0 
-366 367 0 
-367 193 0 
-367 368 0 
-368 191 0 
-368 369 0 
-369 189 0 
-369 370 0 
-30 -31 39 0 
-30 31 42 0 
-370 187 0 
-370 371 0 
-371 185 0 
-371 372 0 
-372 183 0 
-372 373 0 
-373 181 0 
-373 374 0 
-374 179 0 
-374 375 0 
-375 177 0 
-375 376 0 
-376 175 0 
-376 377 0 
-377 173 0 
-377 378 0 
-378 171 0 
-378 379 0 
-379 169 0 
-379 380 0 
-31 28 0 
-31 32 0 
-380 167 0 
-380 381 0 
-381 165 0 
-381 382 0 
-382 163 0 
-382 383 0 
-383 161 0 
-383 384 0 
-384 159 0 
-384 385 0 
-385 157 0 
-385 386 0 
-386 155 0 
-386 387 0 
-387 151 0 
-387 388 0 
-388 154 0 
-389 308 0 
-389 390 0 
-32 26 0 
-32 33 0 
-390 306 0 
-390 391 0 
-391 304 0 
-391 392 0 
-392 302 0 
-392 393 0 
-393 300 0 
-393 394 0 
-394 298 0 
-394 395 0 
-395 296 0 
-395 396 0 
-396 294 0 
-396 397 0 
-397 292 0 
-397 398 0 
-398 290 0 
-398 399 0 
-399 288 0 
-399 400 0 
-33 24 0 
-33 34 0 
-400 286 0 
-400 401 0 
-401 284 0 
-401 402 0 
-402 282 0 
-402 403 0 
-403 280 0 
-403 404 0 
-404 278 0 
-404 405 0 
-405 276 0 
-405 406 0 
-406 274 0 
-406 407 0 
-407 272 0 
-407 408 0 
-408 270 0 
-408 409 0 
-409 268 0 
-409 410 0 
-34 22 0 
-34 35 0 
-410 266 0 
-410 411 0 
-411 264 0 
-411 412 0 
-412 262 0 
-412 413 0 
-413 260 0 
-413 414 0 
-414 258 0 
-414 415 0 
-415 256 0 
-415 416 0 
-416 254 0 
-416 417 0 
-417 252 0 
-417 418 0 
-418 250 0 
-418 419 0 
-419 248 0 
-419 420 0 
-35 20 0 
-35 36 0 
-420 247 0 
-421 -422 426 0 
-421 422 458 0 
-422 28 0 
-422 423 0 
-423 26 0 
-423 424 0 
-424 24 0 
-424 425 0 
-425 116 0 
-425 56 0 
-426 -108 0 
-426 108 427 0 
-427 -428 0 
-427 428 39 0 
-428 120 0 
-428 429 0 
-429 308 0 
-429 430 0 
-36 18 0 
-36 37 0 
-430 306 0 
-430 431 0 
-431 304 0 
-431 432 0 
-432 302 0 
-432 433 0 
-433 300 0 
-433 434 0 
-434 298 0 
-434 435 0 
-435 296 0 
-435 436 0 
-436 294 0 
-436 437 0 
-437 292 0 
-437 438 0 
-438 290 0 
-438 439 0 
-439 288 0 
-439 440 0 
-37 16 0 
-37 38 0 
-440 286 0 
-440 441 0 
-441 284 0 
-441 442 0 
-442 282 0 
-442 443 0 
-443 280 0 
-443 444 0 
-444 278 0 
-444 445 0 
-445 276 0 
-445 446 0 
-446 274 0 
-446 447 0 
-447 272 0 
-447 448 0 
-448 270 0 
-448 449 0 
-449 268 0 
-449 450 0 
-38 15 0 
-450 266 0 
-450 451 0 
-451 264 0 
-451 452 0 
-452 262 0 
-452 453 0 
-453 260 0 
-453 454 0 
-454 258 0 
-454 455 0 
-455 256 0 
-455 456 0 
-456 243 0 
-456 457 0 
-457 255 0 
-458 -459 463 0 
-458 459 496 0 
-459 28 0 
-459 460 0 
-39 -40 0 
-460 26 0 
-460 461 0 
-461 24 0 
-461 462 0 
-462 116 0 
-462 64 0 
-463 -108 0 
-463 108 464 0 
-464 -465 0 
-464 465 39 0 
-465 213 0 
-465 466 0 
-466 211 0 
-466 467 0 
-467 209 0 
-467 468 0 
-468 207 0 
-468 469 0 
-469 205 0 
-469 470 0 
-40 41 0 
-470 203 0 
-470 471 0 
-471 201 0 
-471 472 0 
-472 199 0 
-472 473 0 
-473 197 0 
-473 474 0 
-474 195 0 
-474 475 0 
-475 193 0 
-475 476 0 
-476 191 0 
-476 477 0 
-477 189 0 
-477 478 0 
-478 187 0 
-478 479 0 
-479 185 0 
-479 480 0 
-480 183 0 
-480 481 0 
-481 181 0 
-481 482 0 
-482 179 0 
-482 483 0 
-483 177 0 
-483 484 0 
-484 175 0 
-484 485 0 
-485 173 0 
-485 486 0 
-486 171 0 
-486 487 0 
-487 169 0 
-487 488 0 
-488 167 0 
-488 489 0 
-489 165 0 
-489 490 0 
-1 795 0 
1 848 0 
-42 -43 39 0 
-42 43 51 0 
-490 163 0 
-490 491 0 
-491 161 0 
-491 492 0 
-492 159 0 
-492 493 0 
-493 157 0 
-493 494 0 
-494 155 0 
-494 495 0 
-495 348 0 
-495 388 0 
-496 -497 501 0 
-496 497 534 0 
-497 28 0 
-497 498 0 
-498 26 0 
-498 499 0 
-499 24 0 
-499 500 0 
-43 28 0 
-43 44 0 
-500 116 0 
-500 72 0 
-501 -108 0 
-501 108 502 0 
-502 -503 0 
-502 503 39 0 
-503 213 0 
-503 504 0 
-504 211 0 
-504 505 0 
-505 209 0 
-505 506 0 
-506 207 0 
-506 507 0 
-507 205 0 
-507 508 0 
-508 203 0 
-508 509 0 
-509 201 0 
-509 510 0 
-44 26 0 
-44 45 0 
-510 199 0 
-510 511 0 
-511 197 0 
-511 512 0 
-512 195 0 
-512 513 0 
-513 193 0 
-513 514 0 
-514 191 0 
-514 515 0 
-515 189 0 
-515 516 0 
-516 187 0 
-516 517 0 
-517 185 0 
-517 518 0 
-518 183 0 
-518 519 0 
-519 181 0 
-519 520 0 
-45 24 0 
-45 46 0 
-520 179 0 
-520 521 0 
-521 177 0 
-521 522 0 
-522 175 0 
-522 523 0 
-523 173 0 
-523 524 0 
-524 171 0 
-524 525 0 
-525 169 0 
-525 526 0 
-526 167 0 
-526 527 0 
-527 165 0 
-527 528 0 
-528 163 0 
-528 529 0 
-529 161 0 
-529 530 0 
-46 22 0 
-46 47 0 
-530 159 0 
-530 531 0 
-531 157 0 
-531 532 0 
-532 387 0 
-532 533 0 
-533 156 0 
-534 -535 539 0 
-534 535 571 0 
-535 28 0 
-535 536 0 
-536 26 0 
-536 537 0 
-537 24 0 
-537 538 0 
-538 116 0 
-538 85 0 
-539 -108 0 
-539 108 540 0 
-47 20 0 
-47 48 0 
-540 -541 0 
-540 541 39 0 
-541 213 0 
-541 542 0 
-542 211 0 
-542 543 0 
-543 209 0 
-543 544 0 
-544 207 0 
-544 545 0 
-545 205 0 
-545 546 0 
-546 203 0 
-546 547 0 
-547 201 0 
-547 548 0 
-548 199 0 
-548 549 0 
-549 197 0 
-549 550 0 
-48 18 0 
-48 49 0 
-550 195 0 
-550 551 0 
-551 193 0 
-551 552 0 
-552 191 0 
-552 553 0 
-553 189 0 
-553 554 0 
-554 187 0 
-554 555 0 
-555 185 0 
-555 556 0 
-556 183 0 
-556 557 0 
-557 181 0 
-557 558 0 
-558 179 0 
-558 559 0 
-559 177 0 
-559 560 0 
-49 14 0 
-49 50 0 
-560 175 0 
-560 561 0 
-561 173 0 
-561 562 0 
-562 171 0 
-562 563 0 
-563 169 0 
-563 564 0 
-564 167 0 
-564 565 0 
-565 165 0 
-565 566 0 
-566 163 0 
-566 567 0 
-567 161 0 
-567 568 0 
-568 159 0 
-568 569 0 
-569 149 0 
-569 570 0 
-50 17 0 
-570 158 0 
-571 -572 576 0 
-571 572 578 0 
-572 28 0 
-572 573 0 
-573 26 0 
-573 574 0 
-574 24 0 
-574 575 0 
-575 92 0 
-575 116 0 
-576 -108 0 
-576 108 577 0 
-577 -120 0 
-577 120 39 0 
-578 -579 583 0 
-578 579 614 0 
-579 28 0 
-579 580 0 
-51 -52 39 0 
-51 52 59 0 
-580 26 0 
-580 581 0 
-581 24 0 
-581 582 0 
-582 99 0 
-582 116 0 
-583 -108 0 
-583 108 584 0 
-584 -585 0 
-584 585 39 0 
-585 213 0 
-585 586 0 
-586 211 0 
-586 587 0 
-587 209 0 
-587 588 0 
-588 207 0 
-588 589 0 
-589 205 0 
-589 590 0 
-1 2 792 0 
-52 28 0 
-52 53 0 
-590 203 0 
-590 591 0 
-591 201 0 
-591 592 0 
-592 199 0 
-592 593 0 
-593 197 0 
-593 594 0 
-594 195 0 
-594 595 0 
-595 193 0 
-595 596 0 
-596 191 0 
-596 597 0 
-597 189 0 
-597 598 0 
-598 187 0 
-598 599 0 
-599 185 0 
-599 600 0 
-53 26 0 
-53 54 0 
-600 183 0 
-600 601 0 
-601 181 0 
-601 602 0 
-602 179 0 
-602 603 0 
-603 177 0 
-603 604 0 
-604 175 0 
-604 605 0 
-605 173 0 
-605 606 0 
-606 171 0 
-606 607 0 
-607 169 0 
-607 608 0 
-608 167 0 
-608 609 0 
-609 165 0 
-609 610 0 
-54 24 0 
-54 55 0 
-610 163 0 
-610 611 0 
-611 161 0 
-611 612 0 
-612 159 0 
-612 613 0 
-613 346 0 
-613 570 0 
-614 -615 576 0 
-614 615 619 0 
-615 28 0 
-615 616 0 
-616 26 0 
-616 617 0 
-617 24 0 
-617 618 0 
-618 106 0 
-618 116 0 
-619 -620 576 0 
-619 620 624 0 
-55 22 0 
-55 56 0 
-620 28 0 
-620 621 0 
-621 26 0 
-621 622 0 
-622 10 0 
-622 623 0 
-623 25 0 
-624 -625 576 0 
-624 625 628 0 
-625 28 0 
-625 626 0 
-626 26 0 
-626 627 0 
-627 34 0 
-627 623 0 
-628 -629 576 0 
-628 629 632 0 
-629 28 0 
-629 630 0 
-56 20 0 
-56 57 0 
-630 26 0 
-630 631 0 
-631 46 0 
-631 623 0 
-632 -633 576 0 
-632 633 636 0 
-633 28 0 
-633 634 0 
-634 26 0 
-634 635 0 
-635 55 0 
-635 623 0 
-636 -637 576 0 
-636 637 640 0 
-637 28 0 
-637 638 0 
-638 26 0 
-638 639 0 
-639 623 0 
-639 63 0 
-57 18 0 
-57 58 0 
-640 -641 576 0 
-640 641 0 
-641 28 0 
-641 642 0 
-642 26 0 
-642 643 0 
-643 623 0 
-643 71 0 
-644 -7 5 0 
-644 7 645 0 
-645 -31 646 0 
-645 31 699 0 
-646 -3 647 0 
-646 3 649 0 
-647 -648 0 
-648 41 0 
-649 -7 647 0 
-649 7 650 0 
-58 38 0 
-58 50 0 
-650 -31 651 0 
-650 31 653 0 
-651 -652 0 
-653 -43 651 0 
-653 43 654 0 
-654 -52 651 0 
-654 52 655 0 
-655 -60 656 0 
-655 60 658 0 
-656 -657 0 
-657 -41 0 
-658 -68 659 0 
-658 68 660 0 
-659 -75 647 0 
-659 75 651 0 
-59 60 67 0 
-660 -81 651 0 
-660 81 661 0 
-661 -88 651 0 
-661 88 662 0 
-662 -95 656 0 
-662 95 663 0 
-663 -102 664 0 
-663 102 665 0 
-664 -108 647 0 
-664 108 651 0 
-665 -112 666 0 
-665 112 668 0 
-666 -108 647 0 
-666 108 667 0 
-667 -119 647 0 
-667 119 651 0 
-668 -311 669 0 
-668 311 671 0 
-669 -108 647 0 
-669 108 670 0 
-60 28 0 
-60 61 0 
-670 -317 647 0 
-670 317 651 0 
-671 -350 672 0 
-671 350 674 0 
-672 -108 647 0 
-672 108 673 0 
-673 -356 647 0 
-673 356 651 0 
-674 -422 675 0 
-674 422 677 0 
-675 -108 647 0 
-675 108 676 0 
-676 -428 647 0 
-676 428 651 0 
-677 -459 678 0 
-677 459 680 0 
-678 -108 647 0 
-678 108 679 0 
-679 -465 647 0 
-679 465 651 0 
-61 26 0 
-61 62 0 
-680 -497 681 0 
-680 497 683 0 
-681 -108 647 0 
-681 108 682 0 
-682 -503 647 0 
-682 503 651 0 
-683 -535 684 0 
-683 535 686 0 
-684 -108 647 0 
-684 108 685 0 
-685 -541 647 0 
-685 541 651 0 
-686 -572 687 0 
-686 572 689 0 
-687 -108 647 0 
-687 108 688 0 
-688 -120 647 0 
-688 120 651 0 
-689 -579 690 0 
-689 579 692 0 
-2 -3 5 0 
-2 3 644 0 
-62 24 0 
-62 63 0 
-690 -108 647 0 
-690 108 691 0 
-691 -585 647 0 
-691 585 651 0 
-692 -615 687 0 
-692 615 693 0 
-693 -620 687 0 
-693 620 694 0 
-694 -625 687 0 
-694 625 695 0 
-695 -629 687 0 
-695 629 696 0 
-696 -633 687 0 
-696 633 697 0 
-697 -637 687 0 
-697 637 698 0 
-698 -641 687 0 
-698 641 647 0 
-699 -43 646 0 
-699 43 700 0 
-63 22 0 
-63 64 0 
-700 -52 646 0 
-700 52 701 0 
-701 -60 702 0 
-701 60 751 0 
-702 3 703 0 
-703 7 704 0 
-704 -31 705 0 
-704 31 707 0 
-705 -706 0 
-706 -41 0 
-707 -43 705 0 
-707 43 708 0 
-64 20 0 
-64 65 0 
-708 -52 705 0 
-708 52 709 0 
-709 -60 0 
-709 60 710 0 
-710 -68 711 0 
-710 68 712 0 
-711 75 705 0 
-712 -81 705 0 
-712 81 713 0 
-713 -88 705 0 
-713 88 714 0 
-714 -95 0 
-714 95 715 0 
-715 -102 716 0 
-715 102 717 0 
-65 13 0 
-65 66 0 
-716 108 705 0 
-717 -112 718 0 
-717 112 720 0 
-718 108 719 0 
-719 119 705 0 
-720 -311 721 0 
-720 311 723 0 
-721 108 722 0 
-722 317 705 0 
-723 -350 724 0 
-723 350 726 0 
-724 108 725 0 
-725 356 705 0 
-66 19 0 
-726 -422 727 0 
-726 422 729 0 
-727 108 728 0 
-728 428 705 0 
-729 -459 730 0 
-729 459 732 0 
-730 108 731 0 
-731 465 705 0 
-732 -497 733 0 
-732 497 735 0 
-733 108 734 0 
-734 503 705 0 
-735 -535 736 0 
-735 535 738 0 
-736 108 737 0 
-737 541 705 0 
-738 -572 739 0 
-738 572 741 0 
-739 108 740 0 
-740 120 705 0 
-741 -579 742 0 
-741 579 744 0 
-742 108 743 0 
-743 585 705 0 
-744 -615 739 0 
-744 615 745 0 
-745 -620 739 0 
-745 620 746 0 
-746 -625 739 0 
-746 625 747 0 
-747 -629 739 0 
-747 629 748 0 
-748 -633 739 0 
-748 633 749 0 
-749 -637 739 0 
-749 637 750 0 
-750 -641 739 0 
-751 -68 752 0 
-751 68 753 0 
-752 -75 5 0 
-752 75 646 0 
-753 -81 646 0 
-753 81 754 0 
-754 -88 646 0 
-754 88 755 0 
-755 -95 702 0 
-755 95 756 0 
-67 -68 74 0 
-67 68 80 0 
-756 -102 757 0 
-756 102 758 0 
-757 -108 5 0 
-757 108 646 0 
-758 -112 759 0 
-758 112 761 0 
-759 -108 5 0 
-759 108 760 0 
-760 -119 5 0 
-760 119 646 0 
-761 -311 762 0 
-761 311 764 0 
-762 -108 5 0 
-762 108 763 0 
-763 -317 5 0 
-763 317 646 0 
-764 -350 765 0 
-764 350 767 0 
-765 -108 5 0 
-765 108 766 0 
-68 28 0 
-68 69 0 
-766 -356 5 0 
-766 356 646 0 
-767 -422 768 0 
-767 422 770 0 
-768 -108 5 0 
-768 108 769 0 
-769 -428 5 0 
-769 428 646 0 
-770 -459 771 0 
-770 459 773 0 
-771 -108 5 0 
-771 108 772 0 
-772 -465 5 0 
-772 465 646 0 
-773 -497 774 0 
-773 497 776 0 
-774 -108 5 0 
-774 108 775 0 
-775 -503 5 0 
-775 503 646 0 
-69 26 0 
-69 70 0 
-776 -535 777 0 
-776 535 779 0 
-777 -108 5 0 
-777 108 778 0 
-778 -541 5 0 
-778 541 646 0 
-779 -572 780 0 
-779 572 782 0 
-780 -108 5 0 
-780 108 781 0 
-781 -120 5 0 
-781 120 646 0 
-782 -579 783 0 
-782 579 785 0 
-783 -108 5 0 
-783 108 784 0 
-784 -585 5 0 
-784 585 646 0 
-785 -615 780 0 
-785 615 786 0 
-3 -4 0 
-70 24 0 
-70 71 0 
-786 -620 780 0 
-786 620 787 0 
-787 -625 780 0 
-787 625 788 0 
-788 -629 780 0 
-788 629 789 0 
-789 -633 780 0 
-789 633 790 0 
-790 -637 780 0 
-790 637 791 0 
-791 -641 780 0 
-791 641 5 0 
-792 -793 0 
-795 -796 845 0 
-795 796 847 0 
-71 22 0 
-71 72 0 
-796 797 0 
-796 844 0 
-797 3 798 0 
-798 7 799 0 
-799 -31 648 0 
-799 31 800 0 
-800 -43 648 0 
-800 43 801 0 
-801 -52 648 0 
-801 52 802 0 
-802 -60 0 
-802 60 803 0 
-803 -68 804 0 
-803 68 805 0 
-804 75 648 0 
-805 -81 648 0 
-805 81 806 0 
-72 20 0 
-72 73 0 
-806 -88 648 0 
-806 88 807 0 
-807 -95 0 
-807 95 808 0 
-808 -102 809 0 
-808 102 810 0 
-809 108 648 0 
-810 -112 811 0 
-810 112 813 0 
-811 108 812 0 
-812 119 648 0 
-813 -311 814 0 
-813 311 816 0 
-814 108 815 0 
-815 317 648 0 
-73 37 0 
-73 66 0 
-816 -350 817 0 
-816 350 819 0 
-817 108 818 0 
-818 356 648 0 
-819 -422 820 0 
-819 422 822 0 
-820 108 821 0 
-821 428 648 0 
-822 -459 823 0 
-822 459 825 0 
-823 108 824 0 
-824 465 648 0 
-825 -497 826 0 
-825 497 828 0 
-74 -75 0 
-74 75 39 0 
-826 108 827 0 
-827 503 648 0 
-828 -535 829 0 
-828 535 831 0 
-829 108 830 0 
-830 541 648 0 
-831 -572 832 0 
-831 572 834 0 
-832 108 833 0 
-833 120 648 0 
-834 -579 835 0 
-834 579 837 0 
-835 108 836 0 
-75 76 0 
-75 78 0 
-836 585 648 0 
-837 -615 832 0 
-837 615 838 0 
-838 -620 832 0 
-838 620 839 0 
-839 -625 832 0 
-839 625 840 0 
-840 -629 832 0 
-840 629 841 0 
-841 -633 832 0 
-841 633 842 0 
-842 -637 832 0 
-842 637 843 0 
-843 -641 832 0 
-844 794 0 
-845 846 0 
-76 77 0 
-847 -846 0 
-848 -849 795 0 
-848 849 850 0 
-849 646 792 0 
-850 -851 855 0 
-850 851 857 0 
-851 651 852 0 
-852 -853 0 
-853 -794 854 0 
-853 -854 794 0 
-855 -856 845 0 
-855 856 847 0 
-856 648 0 
-856 844 0 
-857 -846 858 0 
-857 -858 846 0 
-78 79 0 
-80 -81 39 0 
-80 81 87 0 
-81 28 0 
-81 82 0 
-82 26 0 
-82 83 0 
-83 24 0 
-83 84 0 
-84 22 0 
-84 85 0 
-85 20 0 
-85 86 0 
-86 49 0 
-86 66 0 
-87 -88 39 0 
-87 88 94 0 
-88 28 0 
-88 89 0 
-89 90 0 
-89 26 0 
90 -91 -24 0 
91 -92 -22 0 
92 -93 -20 0 
93 -58 -66 0 
94 -95 0 
94 -101 0 
94 95 -101 0 
95 -96 -28 0 
96 -97 -26 0 
97 -98 -24 0 
98 -99 -22 0 
99 -12 -100 0 
5 3 -6 0 
100 -21 0 
101 -102 -107 0 
101 -107 -111 0 
101 102 -111 0 
102 -103 -28 0 
103 -104 -26 0 
104 -105 -24 0 
105 -106 -22 0 
106 -36 -100 0 
107 108 -39 0 
108 -109 0 
108 -76 0 
109 -110 0 
111 -112 -117 0 
111 -117 -310 0 
111 112 -310 0 
112 -113 -28 0 
113 -114 -26 0 
114 -115 -24 0 
115 -11 -116 0 
116 -23 0 
117 108 -118 0 
118 119 -39 0 
119 -120 -215 0 
120 -121 -213 0 
121 -122 -211 0 
122 -123 -209 0 
123 -124 -207 0 
124 -125 -205 0 
125 -126 -203 0 
126 -127 -201 0 
127 -128 -199 0 
128 -129 -197 0 
129 -130 -195 0 
6 7 -30 0 
130 -131 -193 0 
131 -132 -191 0 
132 -133 -189 0 
133 -134 -187 0 
134 -135 -185 0 
135 -136 -183 0 
136 -137 -181 0 
137 -138 -179 0 
138 -139 -177 0 
139 -140 -175 0 
7 -8 -28 0 
140 -141 -173 0 
141 -142 -171 0 
142 -143 -169 0 
143 -144 -167 0 
144 -145 -165 0 
145 -146 -163 0 
146 -147 -161 0 
147 -148 -159 0 
148 -149 -157 0 
149 -150 -155 0 
8 -9 -26 0 
150 -151 -153 0 
151 152 0 
153 154 0 
155 156 0 
157 158 0 
159 160 0 
9 -10 -24 0 
161 162 0 
163 164 0 
165 166 0 
167 168 0 
169 170 0 
10 -11 -22 0 
171 172 0 
173 174 0 
175 176 0 
177 178 0 
179 180 0 
11 -12 -20 0 
181 182 0 
183 184 0 
185 186 0 
187 188 0 
189 190 0 
12 -13 -18 0 
191 192 0 
193 194 0 
195 196 0 
197 198 0 
199 200 0 
13 -14 -16 0 
201 202 0 
203 204 0 
205 206 0 
207 208 0 
209 210 0 
14 15 0 
211 212 0 
213 214 0 
215 -216 -308 0 
216 -217 -306 0 
217 -218 -304 0 
218 -219 -302 0 
219 -220 -300 0 
220 -221 -298 0 
221 -222 -296 0 
222 -223 -294 0 
223 -224 -292 0 
224 -225 -290 0 
225 -226 -288 0 
226 -227 -286 0 
227 -228 -284 0 
228 -229 -282 0 
229 -230 -280 0 
16 17 0 
230 -231 -278 0 
231 -232 -276 0 
232 -233 -274 0 
233 -234 -272 0 
234 -235 -270 0 
235 -236 -268 0 
236 -237 -266 0 
237 -238 -264 0 
238 -239 -262 0 
239 -240 -260 0 
240 -241 -258 0 
241 -242 -256 0 
242 -243 -254 0 
243 -244 -252 0 
244 -245 -250 0 
245 -246 -248 0 
246 247 0 
248 249 0 
18 19 0 
250 251 0 
252 253 0 
254 255 0 
256 257 0 
258 259 0 
260 261 0 
262 263 0 
264 265 0 
266 267 0 
268 269 0 
20 21 0 
270 271 0 
272 273 0 
274 275 0 
276 277 0 
278 279 0 
280 281 0 
282 283 0 
284 285 0 
286 287 0 
288 289 0 
22 23 0 
290 291 0 
292 293 0 
294 295 0 
296 297 0 
298 299 0 
300 301 0 
302 303 0 
304 305 0 
306 307 0 
308 309 0 
24 25 0 
310 -311 -315 0 
310 -315 -349 0 
310 311 -349 0 
311 -312 -28 0 
312 -313 -26 0 
313 -314 -24 0 
314 -35 -116 0 
315 108 -316 0 
316 317 -39 0 
317 -318 -213 0 
318 -319 -211 0 
319 -320 -209 0 
320 -321 -207 0 
321 -322 -205 0 
322 -323 -203 0 
323 -324 -201 0 
324 -325 -199 0 
325 -326 -197 0 
326 -327 -195 0 
327 -328 -193 0 
328 -329 -191 0 
329 -330 -189 0 
26 27 0 
330 -331 -187 0 
331 -332 -185 0 
332 -333 -183 0 
333 -334 -181 0 
334 -335 -179 0 
335 -336 -177 0 
336 -337 -175 0 
337 -338 -173 0 
338 -339 -171 0 
339 -340 -169 0 
340 -341 -167 0 
341 -342 -165 0 
342 -343 -163 0 
343 -344 -161 0 
344 -345 -159 0 
345 -346 -157 0 
346 -347 -155 0 
347 -348 -153 0 
348 -152 0 
349 -350 -354 0 
349 -354 -421 0 
349 350 -421 0 
28 29 0 
350 -351 -28 0 
351 -352 -26 0 
352 -353 -24 0 
353 -47 -116 0 
354 108 -355 0 
355 356 -39 0 
356 -357 -389 0 
357 -358 -213 0 
358 -359 -211 0 
359 -360 -209 0 
360 -361 -207 0 
361 -362 -205 0 
362 -363 -203 0 
363 -364 -201 0 
364 -365 -199 0 
365 -366 -197 0 
366 -367 -195 0 
367 -368 -193 0 
368 -369 -191 0 
369 -370 -189 0 
30 -31 -39 0 
30 -39 -42 0 
30 31 -42 0 
370 -371 -187 0 
371 -372 -185 0 
372 -373 -183 0 
373 -374 -181 0 
374 -375 -179 0 
375 -376 -177 0 
376 -377 -175 0 
377 -378 -173 0 
378 -379 -171 0 
379 -380 -169 0 
31 -32 -28 0 
380 -381 -167 0 
381 -382 -165 0 
382 -383 -163 0 
383 -384 -161 0 
384 -385 -159 0 
385 -386 -157 0 
386 -387 -155 0 
387 -151 -388 0 
388 -154 0 
389 -390 -308 0 
32 -33 -26 0 
390 -391 -306 0 
391 -392 -304 0 
392 -393 -302 0 
393 -394 -300 0 
394 -395 -298 0 
395 -396 -296 0 
396 -397 -294 0 
397 -398 -292 0 
398 -399 -290 0 
399 -400 -288 0 
33 -34 -24 0 
400 -401 -286 0 
401 -402 -284 0 
402 -403 -282 0 
403 -404 -280 0 
404 -405 -278 0 
405 -406 -276 0 
406 -407 -274 0 
407 -408 -272 0 
408 -409 -270 0 
409 -410 -268 0 
34 -35 -22 0 
410 -411 -266 0 
411 -412 -264 0 
412 -413 -262 0 
413 -414 -260 0 
414 -415 -258 0 
415 -416 -256 0 
416 -417 -254 0 
417 -418 -252 0 
418 -419 -250 0 
419 -420 -248 0 
35 -36 -20 0 
420 -247 0 
421 -422 -426 0 
421 -426 -458 0 
421 422 -458 0 
422 -423 -28 0 
423 -424 -26 0 
424 -425 -24 0 
425 -56 -116 0 
426 108 -427 0 
427 428 -39 0 
428 -120 -429 0 
429 -430 -308 0 
36 -37 -18 0 
430 -431 -306 0 
431 -432 -304 0 
432 -433 -302 0 
433 -434 -300 0 
434 -435 -298 0 
435 -436 -296 0 
436 -437 -294 0 
437 -438 -292 0 
438 -439 -290 0 
439 -440 -288 0 
37 -38 -16 0 
440 -441 -286 0 
441 -442 -284 0 
442 -443 -282 0 
443 -444 -280 0 
444 -445 -278 0 
445 -446 -276 0 
446 -447 -274 0 
447 -448 -272 0 
448 -449 -270 0 
449 -450 -268 0 
38 -15 0 
450 -451 -266 0 
451 -452 -264 0 
452 -453 -262 0 
453 -454 -260 0 
454 -455 -258 0 
455 -456 -256 0 
456 -243 -457 0 
457 -255 0 
458 -459 -463 0 
458 -463 -496 0 
458 459 -496 0 
459 -460 -28 0 
39 40 0 
460 -461 -26 0 
461 -462 -24 0 
462 -64 -116 0 
463 108 -464 0 
464 465 -39 0 
465 -466 -213 0 
466 -467 -211 0 
467 -468 -209 0 
468 -469 -207 0 
469 -470 -205 0 
40 -41 0 
470 -471 -203 0 
471 -472 -201 0 
472 -473 -199 0 
473 -474 -197 0 
474 -475 -195 0 
475 -476 -193 0 
476 -477 -191 0 
477 -478 -189 0 
478 -479 -187 0 
479 -480 -185 0 
480 -481 -183 0 
481 -482 -181 0 
482 -483 -179 0 
483 -484 -177 0 
484 -485 -175 0 
485 -486 -173 0 
486 -487 -171 0 
487 -488 -169 0 
488 -489 -167 0 
489 -490 -165 0 
42 -39 -51 0 
42 -43 -39 0 
42 43 -51 0 
490 -491 -163 0 
491 -492 -161 0 
492 -493 -159 0 
493 -494 -157 0 
494 -495 -155 0 
495 -348 -388 0 
496 -497 -501 0 
496 -501 -534 0 
496 497 -534 0 
497 -498 -28 0 
498 -499 -26 0 
499 -500 -24 0 
43 -44 -28 0 
500 -72 -116 0 
501 108 -502 0 
502 503 -39 0 
503 -504 -213 0 
504 -505 -211 0 
505 -506 -209 0 
506 -507 -207 0 
507 -508 -205 0 
508 -509 -203 0 
509 -510 -201 0 
44 -45 -26 0 
510 -511 -199 0 
511 -512 -197 0 
512 -513 -195 0 
513 -514 -193 0 
514 -515 -191 0 
515 -516 -189 0 
516 -517 -187 0 
517 -518 -185 0 
518 -519 -183 0 
519 -520 -181 0 
45 -46 -24 0 
520 -521 -179 0 
521 -522 -177 0 
522 -523 -175 0 
523 -524 -173 0 
524 -525 -171 0 
525 -526 -169 0 
526 -527 -167 0 
527 -528 -165 0 
528 -529 -163 0 
529 -530 -161 0 
46 -47 -22 0 
530 -531 -159 0 
531 -532 -157 0 
532 -387 -533 0 
533 -156 0 
534 -535 -539 0 
534 -539 -571 0 
534 535 -571 0 
535 -536 -28 0 
536 -537 -26 0 
537 -538 -24 0 
538 -85 -116 0 
539 108 -540 0 
47 -48 -20 0 
540 541 -39 0 
541 -542 -213 0 
542 -543 -211 0 
543 -544 -209 0 
544 -545 -207 0 
545 -546 -205 0 
546 -547 -203 0 
547 -548 -201 0 
548 -549 -199 0 
549 -550 -197 0 
48 -49 -18 0 
550 -551 -195 0 
551 -552 -193 0 
552 -553 -191 0 
553 -554 -189 0 
554 -555 -187 0 
555 -556 -185 0 
556 -557 -183 0 
557 -558 -181 0 
558 -559 -179 0 
559 -560 -177 0 
49 -14 -50 0 
560 -561 -175 0 
561 -562 -173 0 
562 -563 -171 0 
563 -564 -169 0 
564 -565 -167 0 
565 -566 -165 0 
566 -567 -163 0 
567 -568 -161 0 
568 -569 -159 0 
569 -149 -570 0 
50 -17 0 
570 -158 0 
571 -572 -576 0 
571 -576 -578 0 
571 572 -578 0 
572 -573 -28 0 
573 -574 -26 0 
574 -575 -24 0 
575 -92 -116 0 
576 108 -577 0 
577 120 -39 0 
578 -579 -583 0 
578 -583 -614 0 
578 579 -614 0 
579 -580 -28 0 
51 -39 -59 0 
51 -52 -39 0 
51 52 -59 0 
580 -581 -26 0 
581 -582 -24 0 
582 -99 -116 0 
583 108 -584 0 
584 585 -39 0 
585 -586 -213 0 
586 -587 -211 0 
587 -588 -209 0 
588 -589 -207 0 
589 -590 -205 0 
1 -2 0 
1 -792 0 
52 -53 -28 0 
590 -591 -203 0 
591 -592 -201 0 
592 -593 -199 0 
593 -594 -197 0 
594 -595 -195 0 
595 -596 -193 0 
596 -597 -191 0 
597 -598 -189 0 
598 -599 -187 0 
599 -600 -185 0 
53 -54 -26 0 
600 -601 -183 0 
601 -602 -181 0 
602 -603 -179 0 
603 -604 -177 0 
604 -605 -175 0 
605 -606 -173 0 
606 -607 -171 0 
607 -608 -169 0 
608 -609 -167 0 
609 -610 -165 0 
54 -55 -24 0 
610 -611 -163 0 
611 -612 -161 0 
612 -613 -159 0 
613 -346 -570 0 
614 -576 -619 0 
614 -615 -576 0 
614 615 -619 0 
615 -616 -28 0 
616 -617 -26 0 
617 -618 -24 0 
618 -106 -116 0 
619 -576 -624 0 
619 -620 -576 0 
619 620 -624 0 
55 -56 -22 0 
620 -621 -28 0 
621 -622 -26 0 
622 -10 -623 0 
623 -25 0 
624 -576 -628 0 
624 -625 -576 0 
624 625 -628 0 
625 -626 -28 0 
626 -627 -26 0 
627 -34 -623 0 
628 -576 -632 0 
628 -629 -576 0 
628 629 -632 0 
629 -630 -28 0 
56 -57 -20 0 
630 -631 -26 0 
631 -46 -623 0 
632 -576 -636 0 
632 -633 -576 0 
632 633 -636 0 
633 -634 -28 0 
634 -635 -26 0 
635 -55 -623 0 
636 -576 -640 0 
636 -637 -576 0 
636 637 -640 0 
637 -638 -28 0 
638 -639 -26 0 
639 -63 -623 0 
57 -58 -18 0 
640 -641 -576 0 
641 -642 -28 0 
642 -643 -26 0 
643 -71 -623 0 
644 -5 -645 0 
644 -7 -5 0 
644 7 -645 0 
645 -31 -646 0 
645 -646 -699 0 
645 31 -699 0 
646 -647 -649 0 
646 -3 -647 0 
646 3 -649 0 
647 648 0 
648 -41 0 
649 -7 -647 0 
649 -647 -650 0 
649 7 -650 0 
58 -38 -50 0 
650 -31 -651 0 
650 -651 -653 0 
650 31 -653 0 
651 652 0 
652 -41 0 
41 652 0 
653 -43 -651 0 
653 -651 -654 0 
653 43 -654 0 
654 -52 -651 0 
654 -651 -655 0 
654 52 -655 0 
655 -656 -658 0 
655 -60 -656 0 
655 60 -658 0 
656 657 0 
657 41 0 
658 -659 -660 0 
658 -68 -659 0 
658 68 -660 0 
659 -647 -651 0 
659 -75 -647 0 
659 75 -651 0 
59 -60 0 
59 -67 0 
59 60 -67 0 
660 -651 -661 0 
660 -81 -651 0 
660 81 -661 0 
661 -651 -662 0 
661 -88 -651 0 
661 88 -662 0 
662 -95 -656 0 
662 -656 -663 0 
662 95 -663 0 
663 -102 -664 0 
663 -664 -665 0 
663 102 -665 0 
664 -108 -647 0 
664 -647 -651 0 
664 108 -651 0 
665 -112 -666 0 
665 -666 -668 0 
665 112 -668 0 
666 -108 -647 0 
666 -647 -667 0 
666 108 -667 0 
667 -119 -647 0 
667 -647 -651 0 
667 119 -651 0 
668 -311 -669 0 
668 -669 -671 0 
668 311 -671 0 
669 -108 -647 0 
669 -647 -670 0 
669 108 -670 0 
60 -61 -28 0 
670 -317 -647 0 
670 -647 -651 0 
670 317 -651 0 
671 -350 -672 0 
671 -672 -674 0 
671 350 -674 0 
672 -108 -647 0 
672 -647 -673 0 
672 108 -673 0 
673 -356 -647 0 
673 -647 -651 0 
673 356 -651 0 
674 -422 -675 0 
674 -675 -677 0 
674 422 -677 0 
675 -108 -647 0 
675 -647 -676 0 
675 108 -676 0 
676 -428 -647 0 
676 -647 -651 0 
676 428 -651 0 
677 -459 -678 0 
677 -678 -680 0 
677 459 -680 0 
678 -108 -647 0 
678 -647 -679 0 
678 108 -679 0 
679 -465 -647 0 
679 -647 -651 0 
679 465 -651 0 
61 -62 -26 0 
680 -497 -681 0 
680 -681 -683 0 
680 497 -683 0 
681 -108 -647 0 
681 -647 -682 0 
681 108 -682 0 
682 -503 -647 0 
682 -647 -651 0 
682 503 -651 0 
683 -535 -684 0 
683 -684 -686 0 
683 535 -686 0 
684 -108 -647 0 
684 -647 -685 0 
684 108 -685 0 
685 -541 -647 0 
685 -647 -651 0 
685 541 -651 0 
686 -572 -687 0 
686 -687 -689 0 
686 572 -689 0 
687 -108 -647 0 
687 -647 -688 0 
687 108 -688 0 
688 -120 -647 0 
688 -647 -651 0 
688 120 -651 0 
689 -579 -690 0 
689 -690 -692 0 
689 579 -692 0 
2 -5 -644 0 
2 -3 -5 0 
2 3 -644 0 
62 -63 -24 0 
690 -108 -647 0 
690 -647 -691 0 
690 108 -691 0 
691 -585 -647 0 
691 -647 -651 0 
691 585 -651 0 
692 -615 -687 0 
692 -687 -693 0 
692 615 -693 0 
693 -620 -687 0 
693 -687 -694 0 
693 620 -694 0 
694 -625 -687 0 
694 -687 -695 0 
694 625 -695 0 
695 -629 -687 0 
695 -687 -696 0 
695 629 -696 0 
696 -633 -687 0 
696 -687 -697 0 
696 633 -697 0 
697 -637 -687 0 
697 -687 -698 0 
697 637 -698 0 
698 -641 -687 0 
698 -687 -647 0 
698 641 -647 0 
699 -43 -646 0 
699 -646 -700 0 
699 43 -700 0 
63 -64 -22 0 
700 -52 -646 0 
700 -646 -701 0 
700 52 -701 0 
701 -60 -702 0 
701 -702 -751 0 
701 60 -751 0 
702 -703 0 
702 -3 0 
702 3 -703 0 
703 -7 0 
703 -704 0 
703 7 -704 0 
704 -31 -705 0 
704 -705 -707 0 
704 31 -707 0 
705 706 0 
706 41 0 
707 -43 -705 0 
707 -705 -708 0 
707 43 -708 0 
64 -65 -20 0 
708 -52 -705 0 
708 -705 -709 0 
708 52 -709 0 
709 60 -710 0 
710 -711 -712 0 
710 -68 -711 0 
710 68 -712 0 
711 -705 0 
711 -75 0 
711 75 -705 0 
712 -705 -713 0 
712 -81 -705 0 
712 81 -713 0 
713 -705 -714 0 
713 -88 -705 0 
713 88 -714 0 
714 95 -715 0 
715 -102 -716 0 
715 -716 -717 0 
715 102 -717 0 
65 -13 -66 0 
716 -108 0 
716 -705 0 
716 108 -705 0 
717 -112 -718 0 
717 -718 -720 0 
717 112 -720 0 
718 -108 0 
718 -719 0 
718 108 -719 0 
719 -119 0 
719 -705 0 
719 119 -705 0 
720 -311 -721 0 
720 -721 -723 0 
720 311 -723 0 
721 -108 0 
721 -722 0 
721 108 -722 0 
722 -317 0 
722 -705 0 
722 317 -705 0 
723 -350 -724 0 
723 -724 -726 0 
723 350 -726 0 
724 -108 0 
724 -725 0 
724 108 -725 0 
725 -356 0 
725 -705 0 
725 356 -705 0 
66 -19 0 
726 -422 -727 0 
726 -727 -729 0 
726 422 -729 0 
727 -108 0 
727 -728 0 
727 108 -728 0 
728 -428 0 
728 -705 0 
728 428 -705 0 
729 -459 -730 0 
729 -730 -732 0 
729 459 -732 0 
730 -108 0 
730 -731 0 
730 108 -731 0 
731 -465 0 
731 -705 0 
731 465 -705 0 
732 -497 -733 0 
732 -733 -735 0 
732 497 -735 0 
733 -108 0 
733 -734 0 
733 108 -734 0 
734 -503 0 
734 -705 0 
734 503 -705 0 
735 -535 -736 0 
735 -736 -738 0 
735 535 -738 0 
736 -108 0 
736 -737 0 
736 108 -737 0 
737 -541 0 
737 -705 0 
737 541 -705 0 
738 -572 -739 0 
738 -739 -741 0 
738 572 -741 0 
739 -108 0 
739 -740 0 
739 108 -740 0 
740 -120 0 
740 -705 0 
740 120 -705 0 
741 -579 -742 0 
741 -742 -744 0 
741 579 -744 0 
742 -108 0 
742 -743 0 
742 108 -743 0 
743 -585 0 
743 -705 0 
743 585 -705 0 
744 -615 -739 0 
744 -739 -745 0 
744 615 -745 0 
745 -620 -739 0 
745 -739 -746 0 
745 620 -746 0 
746 -625 -739 0 
746 -739 -747 0 
746 625 -747 0 
747 -629 -739 0 
747 -739 -748 0 
747 629 -748 0 
748 -633 -739 0 
748 -739 -749 0 
748 633 -749 0 
749 -637 -739 0 
749 -739 -750 0 
749 637 -750 0 
750 -641 -739 0 
750 -739 0 
750 641 0 
751 -752 -753 0 
751 -68 -752 0 
751 68 -753 0 
752 -5 -646 0 
752 -75 -5 0 
752 75 -646 0 
753 -646 -754 0 
753 -81 -646 0 
753 81 -754 0 
754 -646 -755 0 
754 -88 -646 0 
754 88 -755 0 
755 -95 -702 0 
755 -702 -756 0 
755 95 -756 0 
67 -68 -74 0 
67 -74 -80 0 
67 68 -80 0 
756 -102 -757 0 
756 -757 -758 0 
756 102 -758 0 
757 -5 -646 0 
757 -108 -5 0 
757 108 -646 0 
758 -112 -759 0 
758 -759 -761 0 
758 112 -761 0 
759 -5 -760 0 
759 -108 -5 0 
759 108 -760 0 
760 -5 -646 0 
760 -119 -5 0 
760 119 -646 0 
761 -311 -762 0 
761 -762 -764 0 
761 311 -764 0 
762 -5 -763 0 
762 -108 -5 0 
762 108 -763 0 
763 -5 -646 0 
763 -317 -5 0 
763 317 -646 0 
764 -350 -765 0 
764 -765 -767 0 
764 350 -767 0 
765 -5 -766 0 
765 -108 -5 0 
765 108 -766 0 
68 -69 -28 0 
766 -5 -646 0 
766 -356 -5 0 
766 356 -646 0 
767 -422 -768 0 
767 -768 -770 0 
767 422 -770 0 
768 -5 -769 0 
768 -108 -5 0 
768 108 -769 0 
769 -5 -646 0 
769 -428 -5 0 
769 428 -646 0 
770 -459 -771 0 
770 -771 -773 0 
770 459 -773 0 
771 -5 -772 0 
771 -108 -5 0 
771 108 -772 0 
772 -5 -646 0 
772 -465 -5 0 
772 465 -646 0 
773 -497 -774 0 
773 -774 -776 0 
773 497 -776 0 
774 -5 -775 0 
774 -108 -5 0 
774 108 -775 0 
775 -5 -646 0 
775 -503 -5 0 
775 503 -646 0 
69 -70 -26 0 
776 -535 -777 0 
776 -777 -779 0 
776 535 -779 0 
777 -5 -778 0 
777 -108 -5 0 
777 108 -778 0 
778 -5 -646 0 
778 -541 -5 0 
778 541 -646 0 
779 -572 -780 0 
779 -780 -782 0 
779 572 -782 0 
780 -5 -781 0 
780 -108 -5 0 
780 108 -781 0 
781 -5 -646 0 
781 -120 -5 0 
781 120 -646 0 
782 -579 -783 0 
782 -783 -785 0 
782 579 -785 0 
783 -5 -784 0 
783 -108 -5 0 
783 108 -784 0 
784 -5 -646 0 
784 -585 -5 0 
784 585 -646 0 
785 -615 -780 0 
785 -780 -786 0 
785 615 -786 0 
3 4 0 
70 -71 -24 0 
786 -620 -780 0 
786 -780 -787 0 
786 620 -787 0 
787 -625 -780 0 
787 -780 -788 0 
787 625 -788 0 
788 -629 -780 0 
788 -780 -789 0 
788 629 -789 0 
789 -633 -780 0 
789 -780 -790 0 
789 633 -790 0 
790 -637 -780 0 
790 -780 -791 0 
790 637 -791 0 
791 -641 -780 0 
791 -780 -5 0 
791 641 -5 0 
792 793 0 
-794 793 0 
794 793 0 
795 -796 -845 0 
795 -845 -847 0 
795 796 -847 0 
71 -72 -22 0 
796 -797 -844 0 
797 -798 0 
797 -3 0 
797 3 -798 0 
798 -7 0 
798 -799 0 
798 7 -799 0 
799 -31 -648 0 
799 -648 -800 0 
799 31 -800 0 
800 -43 -648 0 
800 -648 -801 0 
800 43 -801 0 
801 -52 -648 0 
801 -648 -802 0 
801 52 -802 0 
802 60 -803 0 
803 -68 -804 0 
803 -804 -805 0 
803 68 -805 0 
804 -648 0 
804 -75 0 
804 75 -648 0 
805 -648 -806 0 
805 -81 -648 0 
805 81 -806 0 
72 -73 -20 0 
806 -648 -807 0 
806 -88 -648 0 
806 88 -807 0 
807 95 -808 0 
808 -102 -809 0 
808 -809 -810 0 
808 102 -810 0 
809 -108 0 
809 -648 0 
809 108 -648 0 
810 -112 -811 0 
810 -811 -813 0 
810 112 -813 0 
811 -108 0 
811 -812 0 
811 108 -812 0 
812 -119 0 
812 -648 0 
812 119 -648 0 
813 -311 -814 0 
813 -814 -816 0 
813 311 -816 0 
814 -108 0 
814 -815 0 
814 108 -815 0 
815 -317 0 
815 -648 0 
815 317 -648 0 
73 -37 -66 0 
816 -350 -817 0 
816 -817 -819 0 
816 350 -819 0 
817 -108 0 
817 -818 0 
817 108 -818 0 
818 -356 0 
818 -648 0 
818 356 -648 0 
819 -422 -820 0 
819 -820 -822 0 
819 422 -822 0 
820 -108 0 
820 -821 0 
820 108 -821 0 
821 -648 0 
821 -428 0 
821 428 -648 0 
822 -459 -823 0 
822 -823 -825 0 
822 459 -825 0 
823 -108 0 
823 -824 0 
823 108 -824 0 
824 -648 0 
824 -465 0 
824 465 -648 0 
825 -497 -826 0 
825 -826 -828 0 
825 497 -828 0 
74 75 -39 0 
826 -108 0 
826 -827 0 
826 108 -827 0 
827 -648 0 
827 -503 0 
827 503 -648 0 
828 -535 -829 0 
828 -829 -831 0 
828 535 -831 0 
829 -108 0 
829 -830 0 
829 108 -830 0 
830 -648 0 
830 -541 0 
830 541 -648 0 
831 -572 -832 0 
831 -832 -834 0 
831 572 -834 0 
832 -108 0 
832 -833 0 
832 108 -833 0 
833 -120 0 
833 -648 0 
833 120 -648 0 
834 -579 -835 0 
834 -835 -837 0 
834 579 -837 0 
835 -108 0 
835 -836 0 
835 108 -836 0 
75 -76 -78 0 
836 -648 0 
836 -585 0 
836 585 -648 0 
837 -615 -832 0 
837 -832 -838 0 
837 615 -838 0 
838 -620 -832 0 
838 -832 -839 0 
838 620 -839 0 
839 -625 -832 0 
839 -832 -840 0 
839 625 -840 0 
840 -629 -832 0 
840 -832 -841 0 
840 629 -841 0 
841 -633 -832 0 
841 -832 -842 0 
841 633 -842 0 
842 -637 -832 0 
842 -832 -843 0 
842 637 -843 0 
843 -641 -832 0 
843 -832 0 
843 641 0 
844 -794 0 
845 -846 0 
76 -77 0 
847 846 0 
848 -795 -850 0 
848 -849 -795 0 
848 849 -850 0 
849 -646 0 
849 -792 0 
850 -851 -855 0 
850 -855 -857 0 
850 851 -857 0 
851 -651 0 
851 -852 0 
852 853 0 
853 -794 -854 0 
853 794 854 0 
855 -845 -847 0 
855 -856 -845 0 
855 856 -847 0 
856 -648 -844 0 
857 -846 -858 0 
857 846 858 0 
78 -79 0 
80 -39 -87 0 
80 -81 -39 0 
80 81 -87 0 
81 -82 -28 0 
82 -83 -26 0 
83 -84 -24 0 
84 -85 -22 0 
85 -86 -20 0 
86 -49 -66 0 
87 -39 -94 0 
87 -88 -39 0 
87 88 -94 0 
88 -89 -28 0 
89 -90 -26 0 
